32
18
0 20 23 24 25 27 28 31
1 22 24 26 31
2 18 19 20 21 22 25 27 28 31
3 20 21 24 25 26 27 28
4 23 24 26 27 28
5 20 21 24 25 27 28 31
6 18 19 20 21 22 24 25 26 27 28 31
7 19 20 27
8 21 22 23 24 26 28 29
9 21 22 23 24 26 30 31
10 18 20 26
11 21 23 26 29
12 19 20 27
13 18 19 23 24 25 28 31
14 25 31
15 19 20 22 31
16 28 29 30
17
